100
1000
209
207
205
204
202
199
199
199
196
194
194
194
193
190
188
186
184
183
182
182
179
178
178
178
176
176
176
173
173
172
169
167
167
167
164
163
163
162
160
160
156
156
156
154
152
150
146
145
145
145
142
141
139
139
136
136
135
134
133
133
129
127
127
127
126
123
122
120
119
117
113
113
112
112
108
106
104
97
96
95
95
95
94
94
90
90
90
87
87
85
84
83
82
80
79
77
77
75
74
73
